&control
    prefix = 'tif3'
    calculation = 'scf'
    restart_mode = 'from_scratch'
    pseudo_dir = '../pbe/pseudo/'
    outdir = './scratch/'
    tstress = .false.
    tprnfor = .false.
    verbosity = 'high'
/
&system
    ibrav = 0
    nat = 4
    ntyp = 2
    ecutwfc = 100
    nspin = 2
    occupations = 'fixed'
    tot_magnetization = 1
    input_dft = 'bp'
/
&electrons
    diagonalization = 'david'
    diago_thr_init = 1e-4
    conv_thr = 1e-8
/
ATOMIC_SPECIES
Ti  47.867     Ti.pbe-tm-gipaw-semi-dc.UPF 
F   18.998     F.pbe-tm-new-gipaw-dc.UPF
ATOMIC_POSITIONS (crystal)
Ti            0.0000000000        0.0000477681        0.0000000000
F             0.0000000000        0.1795684212        0.0000000000
F             0.1553350186       -0.0898080947        0.0000000000
F            -0.1553350186       -0.0898080947        0.0000000000
K_POINTS automatic
1 1 1 0 0 0
CELL_PARAMETERS angstrom
     10.0000000000       0.0000000000       0.0000000000
      0.0000000000      10.0000000000       0.0000000000
      0.0000000000       0.0000000000      10.0000000000
